NAME: instance_2929
TYPE: TSP
DIMENSION: 20
EDGE_WEIGHT_TYPE: EUC_2D
NODE_COORD_SECTION
0 74.91 9.98
1 25.62 53.06
2 64.66 45.25
3 25.65 58.81
4 48.25 92.96
5 81.28 57.39
6 43.77 89.65
7 64.97 55.21
8 76.84 0.41
9 14.00 9.30
10 87.96 47.34
11 49.37 79.95
12 58.43 70.28
13 81.03 90.60
14 90.11 37.82
15 22.31 68.29
16 26.98 90.10
17 10.44 2.28
18 95.20 63.68
19 98.31 10.81
EOF
